1 -1 -2 0
1 1 3 0
1 2 -3 0
1 -2 -1 0
1 -2 4 0
1 2 5 0
1 6 7 0
1 6 8 0
1 6 9 0
1 6 10 0
1 -6 4 0
1 6 -5 0
1 -11 12 0
1 11 3 0
1 11 8 0
1 11 -9 0
1 11 10 0
1 -11 4 0
1 -8 -13 0
1 -8 -14 0
1 8 -15 0
1 8 -11 0
1 8 -2 0
1 8 16 0
1 -8 17 0
1 -8 18 0
1 -8 6 0
1 -8 1 0
1 8 -5 0
1 5 -13 0
1 5 -14 0
1 5 -15 0
1 5 -11 0
1 -5 -2 0
1 -5 8 0
1 5 16 0
1 5 -17 0
1 -5 -18 0
1 5 -6 0
1 -3 13 0
1 -3 -19 0
1 3 -20 0
1 -3 -2 0
1 3 -21 0
1 3 22 0
1 3 6 0
1 3 -1 0
1 -3 -4 0
1 4 13 0
1 4 -19 0
1 4 -20 0
1 4 11 0
1 4 -2 0
1 4 3 0
1 4 23 0
1 4 -22 0
1 -4 6 0
1 4 -1 0
1 18 12 0
1 18 7 0
1 18 -15 0
1 -18 9 0
1 18 -10 0
1 -15 12 0
1 -15 -7 0
1 -15 -20 0
1 -15 8 0
1 -15 10 0
1 15 18 0
1 15 -5 0
1 -17 12 0
1 -17 -24 0
1 17 -8 0
1 17 -9 0
1 -17 25 0
1 17 -23 0
1 -17 -5 0
1 14 12 0
1 -14 -7 0
1 -14 -24 0
1 14 19 0
1 14 9 0
1 14 10 0
1 14 -26 0
1 14 -5 0
1 10 27 0
1 10 28 0
1 10 7 0
1 -10 -14 0
1 -10 15 0
1 10 -11 0
1 -10 -29 0
1 -10 -30 0
1 -10 31 0
1 10 -17 0
1 -10 18 0
1 -10 -32 0
1 -7 -27 0
1 -7 -28 0
1 7 -14 0
1 7 15 0
1 7 11 0
1 7 30 0
1 -7 31 0
1 -7 17 0
1 7 18 0
1 7 -6 0
1 -9 12 0
1 9 33 0
1 -9 -14 0
1 -9 -15 0
1 -9 -11 0
1 9 -34 0
1 -9 -16 0
1 9 -17 0
1 -9 18 0
1 9 6 0
1 9 -32 0
1 -12 13 0
1 -12 -14 0
1 12 -15 0
1 12 29 0
1 -12 -9 0
1 12 16 0
1 -12 17 0
1 12 -18 0
1 12 -6 0
1 12 -32 0
1 31 7 0
1 31 -24 0
1 -31 35 0
1 -31 -16 0
1 -31 -25 0
1 -31 -26 0
1 -28 7 0
1 -28 -13 0
1 -28 -24 0
1 -28 -35 0
1 28 -31 0
1 -28 10 0
1 28 -25 0
1 -28 -26 0
1 -30 27 0
1 30 -24 0
1 30 34 0
1 -30 10 0
1 30 26 0
1 -27 33 0
1 -27 7 0
1 -27 -24 0
1 -27 35 0
1 27 30 0
1 27 10 0
1 -27 -25 0
1 -27 -26 0
1 -26 -27 0
1 -26 -28 0
1 26 30 0
1 -26 -31 0
1 -26 17 0
1 -35 -28 0
1 -35 14 0
1 -35 -30 0
1 35 31 0
1 -35 26 0
1 -25 -27 0
1 -25 28 0
1 25 -14 0
1 25 24 0
1 -25 -36 0
1 25 -29 0
1 25 -30 0
1 -25 31 0
1 25 17 0
1 -25 -32 0
1 24 -27 0
1 -24 14 0
1 24 36 0
1 24 29 0
1 24 -30 0
1 -24 31 0
1 -24 -25 0
1 24 37 0
1 24 -32 0
1 -22 -38 0
1 -22 -20 0
1 -22 -39 0
1 22 -3 0
1 -22 -40 0
1 -22 41 0
1 -22 18 0
1 -22 4 0
1 20 38 0
1 20 -15 0
1 20 39 0
1 20 3 0
1 -20 40 0
1 -20 -41 0
1 20 -22 0
1 20 4 0
1 23 -19 0
1 23 -38 0
1 -23 -39 0
1 23 42 0
1 -23 -43 0
1 23 3 0
1 23 40 0
1 23 41 0
1 23 44 0
1 -23 -45 0
1 -23 4 0
1 19 41 0
1 19 14 0
1 -19 39 0
1 -19 -42 0
1 -19 43 0
1 19 -40 0
1 -19 -23 0
1 -19 45 0
1 -19 -4 0
1 -39 -41 0
1 -39 33 0
1 39 -13 0
1 39 -20 0
1 -39 -34 0
1 -39 -16 0
1 39 23 0
1 41 33 0
1 -41 13 0
1 41 -19 0
1 41 20 0
1 41 34 0
1 -41 16 0
1 41 -23 0
1 41 22 0
1 38 -19 0
1 38 -20 0
1 38 -40 0
1 38 -23 0
1 -38 -22 0
1 -40 19 0
1 -40 -38 0
1 40 -20 0
1 40 23 0
1 40 22 0
1 16 12 0
1 -16 -13 0
1 16 39 0
1 16 -42 0
1 16 43 0
1 16 -8 0
1 -16 -9 0
1 16 -31 0
1 -16 44 0
1 -16 -45 0
1 -16 4 0
1 16 -5 0
1 -13 12 0
1 -13 -39 0
1 13 -42 0
1 -13 43 0
1 -13 3 0
1 13 -8 0
1 13 9 0
1 -13 16 0
1 -13 -44 0
1 -13 45 0
1 -13 -4 0
1 -34 -46 0
1 34 33 0
1 -34 39 0
1 -34 -42 0
1 -34 -47 0
1 -34 -9 0
1 34 -30 0
1 34 -41 0
1 34 44 0
1 -34 45 0
1 -34 -48 0
1 33 46 0
1 33 27 0
1 33 -12 0
1 -33 42 0
1 33 -21 0
1 -33 -47 0
1 -33 -9 0
1 33 34 0
1 33 45 0
1 -43 33 0
1 -43 13 0
1 -43 19 0
1 43 -36 0
1 -43 -29 0
1 43 34 0
1 43 16 0
1 -43 -23 0
1 43 -45 0
1 -43 -37 0
1 43 -32 0
1 45 33 0
1 -45 13 0
1 -45 -43 0
1 -45 -36 0
1 45 -29 0
1 45 34 0
1 45 16 0
1 -45 -23 0
1 45 37 0
1 -45 32 0
1 -42 33 0
1 42 -13 0
1 -42 -34 0
1 -42 -16 0
1 42 23 0
1 -42 -44 0
1 44 33 0
1 -44 13 0
1 44 19 0
1 44 42 0
1 44 -34 0
1 -44 -23 0
1 29 12 0
1 29 -7 0
1 29 24 0
1 29 9 0
1 -29 -47 0
1 -29 10 0
1 -29 -25 0
1 -29 48 0
1 32 12 0
1 -32 -46 0
1 32 -7 0
1 32 24 0
1 -32 -43 0
1 32 21 0
1 32 -47 0
1 32 9 0
1 32 -10 0
1 32 25 0
1 32 45 0
1 -32 -48 0
1 -36 -46 0
1 36 -24 0
1 36 -43 0
1 36 21 0
1 -36 -47 0
1 36 -25 0
1 -36 -45 0
1 36 -37 0
1 36 48 0
1 -37 -46 0
1 37 -24 0
1 37 43 0
1 37 -36 0
1 37 21 0
1 -37 47 0
1 -37 25 0
1 37 48 0
1 37 45 0
1 47 -33 0
1 47 -36 0
1 47 29 0
1 -47 -8 0
1 47 -34 0
1 47 -37 0
1 47 -32 0
1 -46 29 0
1 46 47 0
1 46 5 0
1 -46 -37 0
1 -46 -32 0
1 -21 -33 0
1 21 36 0
1 -21 3 0
1 -21 29 0
1 -21 34 0
1 -21 -48 0
1 21 -32 0
1 48 33 0
1 -48 36 0
1 -48 -29 0
1 48 4 0
1 -48 32 0
